program_setup_time=600;
sequence_setup_time=300;
max_colors_per_job=2;
min_cycles_per_job=2;
max_cycles_per_job=30;
max_jobs=5;
num_colors=1;
num_programs=2;
num_moulds=2;
num_demands=2;
num_lines=1;
reference_makespan=14580;
reference_tardiness=643219;
reference_waste=14;
available_moulds=[15,3];
slots_per_program=[9,7];
cycle_time_for_program=[3570,3060];
program_for_mould=[1,1];
line_for_mould=[1,1];
color_compatibility=array2d(colors, colors, [1]);
demand_qty=[14,8];
demand_duedate=[-636079,27649];
demand_color=[1,1];
demand_mould=[1,2];
